SCIP Status        : solving was interrupted [time limit reached]
Total Time         :    3599.98
  solving          :    3599.97
  presolving       :       0.47 (included in solving)
  reading          :       0.01
  copying          :       0.63 (23 #copies) (minimal 0.00, maximal 0.10, average 0.03)
Original Problem   :
  Problem name     : bbbenchmark/pw05_100.7.cut
  Variables        : 101 (100 binary, 0 integer, 0 implicit integer, 1 continuous)
  Constraints      : 1 initial, 1 maximal
  Objective        : minimize, 1 non-zeros (abs.min = 1, abs.max = 1)
Presolved Problem  :
  Problem name     : t_bbbenchmark/pw05_100.7.cut
  Variables        : 1860 (100 binary, 0 integer, 1745 implicit integer, 15 continuous)
  Constraints      : 1788 initial, 9547 maximal
  Objective        : minimize, 1 non-zeros (abs.min = 1, abs.max = 1)
  Nonzeros         : 8625 constraint, 202 clique table
Presolvers         :   ExecTime  SetupTime  Calls  FixedVars   AggrVars   ChgTypes  ChgBounds   AddHoles    DelCons    AddCons   ChgSides   ChgCoefs
  boundshift       :       0.00       0.00      0          0          0          0          0          0          0          0          0          0
  convertinttobin  :       0.00       0.00      0          0          0          0          0          0          0          0          0          0
  domcol           :       0.00       0.00      1          0          0          0          0          0          0          0          0          0
  dualagg          :       0.00       0.00      0          0          0          0          0          0          0          0          0          0
  dualcomp         :       0.00       0.00      1          0          0          0          0          0          0          0          0          0
  dualinfer        :       0.00       0.00      0          0          0          0          0          0          0          0          0          0
  dualsparsify     :       0.00       0.00      1          0          0          0          0          0          0          0          0          0
  gateextraction   :       0.00       0.00      0          0          0          0          0          0          0          0          0          0
  implics          :       0.00       0.00      2          0          0          0          0          0          0          0          0          0
  inttobinary      :       0.00       0.00      0          0          0          0          0          0          0          0          0          0
  qpkktref         :       0.00       0.00      0          0          0          0          0          0          0          0          0          0
  redvub           :       0.00       0.00      0          0          0          0          0          0          0          0          0          0
  sparsify         :       0.00       0.00      1          0          0          0          0          0          0          0          0          0
  stuffing         :       0.00       0.00      0          0          0          0          0          0          0          0          0          0
  trivial          :       0.00       0.00      4          0          0          0          0          0          0          0          0          0
  tworowbnd        :       0.00       0.00      0          0          0          0          0          0          0          0          0          0
  dualfix          :       0.00       0.00      4          0          0          0          0          0          0          0          0          0
  genvbounds       :       0.00       0.00      0          0          0          0          0          0          0          0          0          0
  probing          :       0.31       0.00      1          0          0          0          0          0          0          0          0          0
  pseudoobj        :       0.00       0.00      1          0          0          0          1          0          0          0          0          0
  symmetry         :       0.00       0.00      0          0          0          0          0          0          0          0          0          0
  vbounds          :       0.00       0.00      1          0          0          0          0          0          0          0          0          0
  varbound         :       0.00       0.00      2          0          0          0          0          0          0          0          0          0
  and              :       0.00       0.00      2          0          0          0          0          0          0          0          0          0
  linear           :       0.01       0.00      2          0          0          0          0          0          0          0          0          0
  logicor          :       0.00       0.00      0          0          0          0          0          0          0          0          0          0
  bounddisjunction :       0.00       0.00      0          0          0          0          0          0          0          0          0          0
  nonlinear        :       0.13       0.01      5          0          0          0          1          0          0       1787          0          0
  benders          :       0.00       0.00      0          0          0          0          0          0          0          0          0          0
  components       :       0.00       0.00      1          0          0          0          0          0          0          0          0          0
  root node        :          -          -      -          0          -          -         12          -          -          -          -          -
Constraints        :     Number  MaxNumber  #Separate #Propagate    #EnfoLP    #EnfoRelax  #EnfoPS    #Check   #ResProp    Cutoffs    DomReds       Cuts    Applied      Conss   Children
  benderslp        :          0          0          0          0      22204          0          0       5212          0          0          0          0          0          0          0
  integral         :          0          0          0          0      22204          0          0       5212          0          0       1239          0          0        698      43362
  varbound         :         14         14         22     210935          0          0          0        133          0          0       9180          0          0          0          0
  and              :       1745       1745      33829     249048          2          0          0        132     219246          2     442035      10811      10050          0          0
  linear           :         29+        36         22     249083          2          0          0        130        720          5      70083          0          0          0          0
  logicor          :          0+      7042          0      37428          0          0          0          0        154        104         15          0          0          0          0
  bounddisjunction :          0+       718          0      17440          0          0          0          0          0          5          1          0          0          0          0
  benders          :          0          0          0          0          2          0          0         20          0          0          0          0          0          0          0
  countsols        :          0          0          0          0          2          0          0         20          0          0          0          0          0          0          0
  components       :          0          0          0          0          0          0          0          0          0          0          0          0          0          0          0
Constraint Timings :  TotalTime  SetupTime   Separate  Propagate     EnfoLP     EnfoPS     EnfoRelax   Check    ResProp    SB-Prop
  benderslp        :       0.03       0.00       0.00       0.00       0.02       0.00       0.00       0.01       0.00       0.00
  integral         :      62.93       0.00       0.00       0.00      62.93       0.00       0.00       0.00       0.00       0.00
  varbound         :       0.18       0.00       0.00       0.17       0.00       0.00       0.00       0.01       0.00       0.00
  and              :      40.14       0.00      26.22      13.12       0.00       0.00       0.00       0.06       0.13       0.61
  linear           :       1.18       0.00       0.01       1.13       0.00       0.00       0.00       0.00       0.00       0.04
  logicor          :       2.30       0.00       0.00       2.28       0.00       0.00       0.00       0.00       0.00       0.02
  bounddisjunction :       0.33       0.00       0.00       0.33       0.00       0.00       0.00       0.00       0.00       0.00
  benders          :       0.00       0.00       0.00       0.00       0.00       0.00       0.00       0.00       0.00       0.00
  countsols        :       0.00       0.00       0.00       0.00       0.00       0.00       0.00       0.00       0.00       0.00
  components       :       0.06       0.00       0.00       0.06       0.00       0.00       0.00       0.00       0.00       0.00
Propagators        : #Propagate   #ResProp    Cutoffs    DomReds
  dualfix          :          4          0          0          0
  genvbounds       :          0          0          0          0
  nlobbt           :          0          0          0          0
  obbt             :          0          0          0          0
  probing          :          0          0          0          0
  pseudoobj        :     101765          0          0         14
  redcost          :      64806          0          0      51077
  rootredcost      :         11          0          0          0
  symmetry         :          0          0          0          0
  vbounds          :      25182          0          0          0
Propagator Timings :  TotalTime  SetupTime   Presolve  Propagate    ResProp    SB-Prop
  dualfix          :       0.00       0.00       0.00       0.00       0.00       0.00
  genvbounds       :       0.16       0.00       0.00       0.16       0.00       0.00
  nlobbt           :       0.00       0.00       0.00       0.00       0.00       0.00
  obbt             :       0.00       0.00       0.00       0.00       0.00       0.00
  probing          :       0.31       0.00       0.31       0.00       0.00       0.00
  pseudoobj        :       0.18       0.00       0.00       0.17       0.00       0.01
  redcost          :       4.97       0.00       0.00       4.96       0.00       0.01
  rootredcost      :       0.18       0.00       0.00       0.18       0.00       0.00
  symmetry         :       0.18       0.00       0.00       0.18       0.00       0.00
  vbounds          :       0.17       0.00       0.00       0.17       0.00       0.00
Conflict Analysis  :       Time      Calls    Success    DomReds  Conflicts   Literals    Reconvs ReconvLits   Dualrays   Nonzeros   LP Iters   (pool size: [10000,10000])
  propagation      :       0.00        111         81          -         90       57.2          0        0.0          -          -          -
  infeasible LP    :       0.06         21         21          -        862      137.8          0        0.0         25      205.9          0
  bound exceed. LP :      11.75       2728       2217          -      54324      108.8          1       40.0          0        0.0      25847
  strong branching :       0.00          0          0          -          0        0.0          0        0.0          -          -          0
  pseudo solution  :       0.00          0          0          -          0        0.0          0        0.0          -          -          -
  applied globally :       0.24          -          -          0      10790      123.6          -          -         25          -          -
  applied locally  :          -          -          -          0          0        0.0          -          -          0          -          -
Separators         :   ExecTime  SetupTime      Calls  RootCalls    Cutoffs    DomReds  FoundCuts ViaPoolAdd  DirectAdd    Applied ViaPoolApp  DirectApp      Conss
  cut pool         :       8.62          -      18071         43          -          -      36776    2694357          -          -          -          -          -    (maximal pool size:       3728)
  aggregation      :      55.00       0.00       7098         22          0          0       2404       6492          0       1441       1441          0          0
  > cmir           :          -          -          -          -          -          -          -       6483          0       1439       1439          0          -
  > flowcover      :          -          -          -          -          -          -          -          9          0          2          2          0          -
  > knapsackcover  :          -          -          -          -          -          -          -          0          0          0          0          0          -
  cgmip            :       0.00       0.00          0          0          0          0          0          0          0          0          0          0          0
  clique           :       0.00       0.00         22         22          0          0          0          0          0          0          0          0          0
  closecuts        :       0.00       0.00          0          0          0          0          0          0          0          0          0          0          0
  convexproj       :       0.00       0.00          0          0          0          0          0          0          0          0          0          0          0
  disjunctive      :       0.00       0.00          0          0          0          0          0          0          0          0          0          0          0
  eccuts           :       0.00       0.00          0          0          0          0          0          0          0          0          0          0          0
  gauge            :       0.00       0.00          0          0          0          0          0          0          0          0          0          0          0
  gomory           :       0.00       0.00          0          0          0          0          0          0          0          0          0          0          0
  > gomorymi       :          -          -          -          -          -          -          -          0          0          0          0          0          -
  > strongcg       :          -          -          -          -          -          -          -          0          0          0          0          0          -
  impliedbounds    :       0.52       0.00       7098         22          0          0         76         10          0          9          9          0          0
  interlattice     :       0.00       0.00          0          0          0          0          0          0          0          0          0          0          0
  interminor       :       0.00       0.00          0          0          0          0          0          0          0          0          0          0          0
  intersub         :       0.00       0.00          0          0          0          0          0          0          0          0          0          0          0
  intobj           :       0.00       0.00          0          0          0          0          0          0          0          0          0          0          0
  mcf              :       0.00       0.00          1          1          0          0          0          0          0          0          0          0          0
  minor            :       0.02       0.00          0          0          0          0          0          0          0          0          0          0          0
  mixing           :       0.03       0.00       7098         22          0          0          0          0          0          0          0          0          0
  oddcycle         :       0.00       0.00          0          0          0          0          0          0          0          0          0          0          0
  rapidlearning    :       0.00       0.00          0          0          0          0          0          0          0          0          0          0          0
  rlt              :       0.00       0.00         10         10          0          0          0          0          0          0          0          0          0
  zerohalf         :      99.52       0.00       6649         20          0          0      34296    2687855          0     152864     152864          0          0
Cutselectors       :   ExecTime  SetupTime      Calls  RootCalls   Selected     Forced   Filtered  RootSelec   RootForc   RootFilt 
  hybrid           :       2.96       0.00      14884         21     164364          0    2540804        186          0          0
Pricers            :   ExecTime  SetupTime      Calls       Vars
  problem variables:       0.00          -          0          0
Branching Rules    :   ExecTime  SetupTime   BranchLP  BranchExt   BranchPS    Cutoffs    DomReds       Cuts      Conss   Children
  allfullstrong    :       0.00       0.00          0          0          0          0          0          0          0          0
  cloud            :       0.00       0.00          0          0          0          0          0          0          0          0
  distribution     :       0.00       0.00          0          0          0          0          0          0          0          0
  fullstrong       :       0.00       0.00          0          0          0          0          0          0          0          0
  inference        :       0.00       0.00          0          0          0          0          0          0          0          0
  leastinf         :       0.00       0.00          0          0          0          0          0          0          0          0
  lookahead        :       0.00       0.00          0          0          0          0          0          0          0          0
  mostinf          :       0.00       0.00          0          0          0          0          0          0          0          0
  multaggr         :       0.00       0.00          0          0          0          0          0          0          0          0
  nodereopt        :       0.00       0.00          0          0          0          0          0          0          0          0
  pscost           :       0.00       0.00          0          0          0          0          0          0          0          0
  random           :       0.00       0.00          0          0          0          0          0          0          0          0
  relpscost        :      62.85       0.00      22202          0          0          0       1239          0        701      43362
  vanillafullstrong:       0.00       0.00          0          0          0          0          0          0          0          0
Primal Heuristics  :   ExecTime  SetupTime      Calls      Found       Best
  LP solutions     :       0.00          -          -          2          2
  relax solutions  :       0.00          -          -          0          0
  pseudo solutions :       0.00          -          -          0          0
  strong branching :       0.01          -          -          0          0
  actconsdiving    :       0.00       0.00          0          0          0
  adaptivediving   :       5.89       0.00         26          0          0
  alns             :       0.98       0.00         12          3          3
  bound            :       0.00       0.00          0          0          0
  clique           :       0.01       0.00          1          0          0
  coefdiving       :       0.00       0.00          0          0          0
  completesol      :       0.00       0.00          0          0          0
  conflictdiving   :      33.40       0.00        153          0          0
  crossover        :       0.48       0.00          1          1          1
  dins             :       0.00       0.00          0          0          0
  distributiondivin:      57.11       0.00        152          0          0
  dps              :       0.00       0.00          0          0          0
  dualval          :       0.00       0.00          0          0          0
  farkasdiving     :       0.00       0.00          0          0          0
  feaspump         :       0.17       0.00          1          1          1
  fixandinfer      :       0.00       0.00          0          0          0
  fracdiving       :      42.18       0.00        152          0          0
  gins             :       0.01       0.00          0          0          0
  guideddiving     :      34.98       0.00        152          1          1
  indicator        :       0.03       0.00          0          0          0
  indicatordiving  :       0.00       0.00          0          0          0
  intdiving        :       0.00       0.00          0          0          0
  intshifting      :       0.34       0.00         29          0          0
  linesearchdiving :      33.00       0.00        152          0          0
  localbranching   :       0.00       0.00          0          0          0
  locks            :       0.01       0.00          1          0          0
  lpface           :       0.04       0.00          0          0          0
  mpec             :     366.06       0.00         11          4          4
  multistart       :       0.00       0.00          0          0          0
  mutation         :       0.00       0.00          0          0          0
  nlpdiving        :      11.34       0.00         10          0          0
  objpscostdiving  :      48.63       0.00         16          1          0
  octane           :       0.00       0.00          0          0          0
  ofins            :       0.03       0.00          0          0          0
  oneopt           :       0.06       0.00         14          0          0
  padm             :       0.00       0.00          0          0          0
  proximity        :       0.00       0.00          0          0          0
  pscostdiving     :      46.23       0.00        152          1          1
  randrounding     :       0.53       0.00       5190          0          0
  rens             :       0.00       0.00          0          0          0
  reoptsols        :       0.00       0.00          0          0          0
  repair           :       0.00       0.00          0          0          0
  rins             :       0.82       0.00          9          0          0
  rootsoldiving    :      31.33       0.00         16          1          0
  rounding         :       0.96       0.00       2638          0          0
  shiftandpropagate:       0.00       0.00          0          0          0
  shifting         :      24.87       0.00       4656          1          1
  simplerounding   :       0.03       0.00          0          0          0
  subnlp           :      52.20       0.00          0          0          0
  trivial          :       0.01       0.00          2          2          2
  trivialnegation  :       0.00       0.00          0          0          0
  trustregion      :       0.00       0.00          0          0          0
  trysol           :       0.07       0.00          0          0          0
  twoopt           :       0.00       0.00          0          0          0
  undercover       :       2.26       0.00          1          1          1
  vbounds          :       0.00       0.00          0          0          0
  veclendiving     :      29.62       0.00        152          0          0
  zeroobj          :       0.00       0.00          0          0          0
  zirounding       :       0.55       0.00       1000          0          0
  other solutions  :          -          -          -          0          -
Diving (single)    :      Calls      Nodes   LP Iters Backtracks  Conflicts   MinDepth   MaxDepth   AvgDepth  RoundSols  NLeafSols  MinSolDpt  MaxSolDpt  AvgSolDpt
  actconsdiving    :          0          -          -          -          -          -          -          -          -          -          -          -          -
  coefdiving       :          0          -          -          -          -          -          -          -          -          -          -          -          -
  conflictdiving   :        153       6576     223297        154      10377         48         69       58.5          0          -          -          -          -
  distributiondivin:        152       5828     338944        172       6806         45         65       53.5          0          -          -          -          -
  farkasdiving     :          0          -          -          -          -          -          -          -          -          -          -          -          -
  fracdiving       :        152      42566     249742        110       1249         75        713      296.5          0          -          -          -          -
  guideddiving     :        152      35288     217818         13        642         84        730      249.6          0          1         86         86       86.0
  indicatordiving  :          0          -          -          -          -          -          -          -          -          -          -          -          -
  linesearchdiving :        152       7969     234838        151       9340         47        107       68.9          0          -          -          -          -
  pscostdiving     :        152       6758     310884        164       7725         51         72       60.3          0          1         66         66       66.0
  veclendiving     :        152       6662     206601        141      11184         48         78       60.0          0          -          -          -          -
Diving (adaptive)  :      Calls      Nodes   LP Iters Backtracks  Conflicts   MinDepth   MaxDepth   AvgDepth  RoundSols  NLeafSols  MinSolDpt  MaxSolDpt  AvgSolDpt
  actconsdiving    :          5        172       9816          6        211         49         56       52.0          0          -          -          -          -
  coefdiving       :          7        307       9275          6        475         55         63       59.1          0          -          -          -          -
  conflictdiving   :          0          -          -          -          -          -          -          -          -          -          -          -          -
  distributiondivin:          0          -          -          -          -          -          -          -          -          -          -          -          -
  farkasdiving     :          0          -          -          -          -          -          -          -          -          -          -          -          -
  fracdiving       :          2        371       2529          0          0        131        269      200.0          0          -          -          -          -
  guideddiving     :          0          -          -          -          -          -          -          -          -          -          -          -          -
  indicatordiving  :          0          -          -          -          -          -          -          -          -          -          -          -          -
  linesearchdiving :          4        188       5767          5        277         53         79       63.0          0          -          -          -          -
  pscostdiving     :          3        139       5520          3        194         64         68       65.7          0          -          -          -          -
  veclendiving     :          5        193       5609          3        301         44         79       58.6          0          -          -          -          -
Neighborhoods      :      Calls  SetupTime  SolveTime SolveNodes       Sols       Best       Exp3  EpsGreedy        UCB TgtFixRate  Opt  Inf Node Stal  Sol  Usr Othr Actv
  rens             :          1       0.03       0.01          1          0          0    0.00000   -1.00000    0.56306      0.700    0    1    0    0    0    0    0    1
  rins             :          1       0.02       0.01          5          0          0    0.00000   -1.00000    0.55906      0.700    0    1    0    0    0    0    0    1
  mutation         :          1       0.04       0.00          1          0          0    0.00000   -1.00000    0.56316      0.700    0    1    0    0    0    0    0    1
  localbranching   :          1       0.01       0.03         43          0          0    0.00000   -1.00000    0.52106      0.700    0    1    0    0    0    0    0    1
  crossover        :          1       0.02       0.01          4          0          0    0.00000   -1.00000    0.56006      0.700    0    1    0    0    0    0    0    1
  proximity        :          1       0.01       0.04         55          0          0    0.00000   -1.00000    0.50906      0.700    0    1    0    0    0    0    0    1
  zeroobjective    :          3       0.21       0.09        111          1          1    0.00000   -1.00000    0.59467      0.900    1    0    0    2    0    0    0    1
  dins             :          3       0.27       0.10        133          2          2    0.00000   -1.00000    0.58817      0.900    1    0    0    2    0    0    0    1
  trustregion      :          0       0.00       0.00          0          0          0    0.00000   -1.00000    1.00000      0.900    0    0    0    0    0    0    0    0
Expressions        :   #IntEval  IntEvalTi   #RevProp  RevPropTi    DomReds    Cutoffs  #Estimate  EstimTime  Branching  #Simplify SimplifyTi Simplified
  pow              :          0       0.00          0       0.00          0          0          0       0.00          0          0       0.00          0
  prod             :       9900       0.00          0       0.00          0          0          0       0.00          0       6695       0.01          0
  sum              :          8       0.01          2       0.00          0          0          0       0.00          0          3       0.02          2
  var              :       6389       0.00          0       0.00          0          0          0       0.00          0      15452       0.00          0
  varidx           :          0       0.00          0       0.00          0          0          0       0.00          0          0       0.00          0
LP                 :       Time      Calls Iterations  Iter/call   Iter/sec  Time-0-It Calls-0-It    ItLimit
  primal LP        :     101.35       4097          0       0.00       0.00     101.35       4097
  dual LP          :    2338.01      56860    9384332     182.81    4013.81       3.11       5527
  lex dual LP      :       0.00          0          0       0.00          -
  barrier LP       :       0.00          0          0       0.00          -       0.00          0
  resolve instable :       0.00          0          0       0.00          -
  diving/probing LP:     323.71       5609    2132901     380.26    6588.93
  strong branching :      48.25       1769     304045     171.87    6301.45          -          -        371
    (at root node) :          -         23       3152     137.04          -
  conflict analysis:       5.62       2603      25847       9.93    4599.11
NLP relaxation     :
  solve time       :      11.33 (10 calls)
  convexity        :  nonconvex (43 linear rows, 0 convex ineq., 0 nonconvex ineq., 1745 nonlinear eq. or two-sided ineq.)
NLP Solvers        :  #Problems  ProblemTi    #Solves  SolveTime      #Iter  Time/Iter      #Okay #TimeLimit #IterLimit #LObjLimit #Interrupt  #NumError #EvalError  #OutOfMem #LicenseEr #OtherTerm   #GlobOpt    #LocOpt  #Feasible #LocInfeas #GlobInfea #Unbounded   #Unknown
  ipopt            :         12       2.10         43     382.06       1513       0.25         43          0          0          0          0          0          0          0          0          0          0         21          0         12          0          0         10
B&B Tree           :
  number of runs   :          1
  nodes            :      35967 (21681 internal, 14286 leaves)
  feasible leaves  :          2
  infeas. leaves   :          4
  objective leaves :      14279
  nodes (total)    :      35967 (21681 internal, 14286 leaves)
  nodes left       :       7369
  max depth        :         56
  max depth (total):         56
  backtracks       :       7864 (21.9%)
  early backtracks :          0 (0.0%)
  nodes exc. ref.  :          0 (0.0%)
  delayed cutoffs  :          0
  repropagations   :         17 (57 domain reductions, 0 cutoffs)
  avg switch length:       4.70
  switching time   :     103.69
Estim. Tree Size   :      71988
Estimation Tree    : 43363 nodes (35994 visited, 21681 internal, 14313 leaves, 7369 open), weight: 0.0000 completed 0.1205
Estimations        :      estim      value      trend resolution     smooth
  wbe              : 2080034024857          -          -          -          -
  tree-profile     :         -1          -          -          -          -
  gap              :     380775    0.67644    0.00003         16     399434
  tree-weight      :      71988    0.00000    0.00000         16      71896
  leaf-frequency   :      71988    0.39764   -0.00026         16      90703
  ssg              :     175641    0.80975   -0.00018         16     182183
  open-nodes       :      71988 7369.00000   25.50302         16      71896
Root Node          :
  First LP value   : -5.58545454545456e+00
  First LP Iters   :       1614 (10760.00 Iter/sec)
  First LP Time    :       0.15
  Final Dual Bound : -5.38121212121213e+00
  Final Root Iters :       2181
  Root LP Estimate : -2.75378379907903e+00
Solution           :
  Solutions found  :         19 (17 improvements)
  First Solution   : +1.00000000000000e+05   (in run 1, after 0 nodes, 0.03 seconds, depth 0, found by <trivial>)
  Gap First Sol.   :   infinite
  Gap Last Sol.    :      55.65 %
  Primal Bound     : -3.22505050505050e+00   (in run 1, after 5648 nodes, 462.65 seconds, depth 40, found by <alns>)
  Dual Bound       : -4.76768634040324e+00
  Gap              :      47.83 %
Integrals          :      Total       Avg%
  primal-dual      :  124759.95      34.66
  primal-ref       :          -          - (not evaluated)
  dual-ref         :          -          - (not evaluated)
